succeed=True
[CUDA] cuda: usage: 5.55 GB
0 :  {link #0 : 1}, {link #1 : 2}, {link #2 : 3},
1 :  {link #0 : 2}, {link #1 : 3}, {link #2 : 0},
2 :  {link #0 : 3}, {link #1 : 0}, {link #2 : 1},
3 :  {link #0 : 0}, {link #1 : 1}, {link #2 : 2},
0 :  {link #0 : 1}, {link #1 : 2}, {link #2 : 3},
1 :  {link #0 : 2}, {link #1 : 3}, {link #2 : 0},
2 :  {link #0 : 3}, {link #1 : 0}, {link #2 : 1},
3 :  {link #0 : 0}, {link #1 : 1}, {link #2 : 2},
0 :  {link #0 : 1}, {link #1 : 2}, {link #2 : 3},
1 :  {link #0 : 2}, {link #1 : 3}, {link #2 : 0},
2 :  {link #0 : 3}, {link #1 : 0}, {link #2 : 1},
3 :  {link #0 : 0}, {link #1 : 1}, {link #2 : 2},
0 : local 80, cpu 0 {link #0 : g1 0}, {link #1 : g2 0}, {link #2 : g3 0},
1 : local 80, cpu 0 {link #0 : g2 0}, {link #1 : g3 0}, {link #2 : g0 0},
2 : local 80, cpu 0 {link #0 : g3 0}, {link #1 : g0 0}, {link #2 : g1 0},
3 : local 80, cpu 0 {link #0 : g0 0}, {link #1 : g1 0}, {link #2 : g2 0},
0 : local 80, cpu 0 {link #0 : g1 0}, {link #1 : g2 0}, {link #2 : g3 0},
1 : local 80, cpu 0 {link #0 : g2 0}, {link #1 : g3 0}, {link #2 : g0 0},
2 : local 80, cpu 0 {link #0 : g3 0}, {link #1 : g0 0}, {link #2 : g1 0},
3 : local 80, cpu 0 {link #0 : g0 0}, {link #1 : g1 0}, {link #2 : g2 0},
0 : local 80, cpu 0 {link #0 : g1 0}, {link #1 : g2 0}, {link #2 : g3 0},
1 : local 80, cpu 0 {link #0 : g2 0}, {link #1 : g3 0}, {link #2 : g0 0},
2 : local 80, cpu 0 {link #0 : g3 0}, {link #1 : g0 0}, {link #2 : g1 0},
3 : local 80, cpu 0 {link #0 : g0 0}, {link #1 : g1 0}, {link #2 : g2 0},
0 :  {link #0 : 1}, {link #1 : 2}, {link #2 : 3},
1 :  {link #0 : 2}, {link #1 : 3}, {link #2 : 0},
2 :  {link #0 : 3}, {link #1 : 0}, {link #2 : 1},
3 :  {link #0 : 0}, {link #1 : 1}, {link #2 : 2},
0 : local 80, cpu 0 {link #0 : g1 0}, {link #1 : g2 0}, {link #2 : g3 0},
1 : local 80, cpu 0 {link #0 : g2 0}, {link #1 : g3 0}, {link #2 : g0 0},
2 : local 80, cpu 0 {link #0 : g3 0}, {link #1 : g0 0}, {link #2 : g1 0},
3 : local 80, cpu 0 {link #0 : g0 0}, {link #1 : g1 0}, {link #2 : g2 0},
Set parameter WLSAccessID
Set parameter WLSSecret
Set parameter LicenseID
Set parameter TimeLimit to value 200
Set parameter MIPGap to value 0.05
Set parameter LogFile to value "cppsolver.log"
Set parameter Threads to value 40
Academic license - for non-commercial use only - registered to xiaoniu.sxn@sjtu.edu.cn
Gurobi Optimizer version 9.5.1 build v9.5.1rc2 (linux64)
Thread count: 40 physical cores, 80 logical processors, using up to 40 threads
Academic license - for non-commercial use only - registered to xiaoniu.sxn@sjtu.edu.cn
Optimize a model with 22592 rows, 7383 columns and 60784 nonzeros
Model fingerprint: 0x944cc436
Variable types: 5 continuous, 7378 integer (7378 binary)
Coefficient statistics:
  Matrix range     [5e-09, 2e+03]
  Objective range  [1e+00, 1e+00]
  Bounds range     [1e+00, 1e+00]
  RHS range        [1e+00, 1e+03]
Found heuristic solution: objective 58432.970814
Presolve removed 15643 rows and 17 columns
Presolve time: 0.08s
Presolved: 6949 rows, 7366 columns, 28066 nonzeros
Variable types: 5 continuous, 7361 integer (7361 binary)

Root relaxation: objective 1.234702e+04, 7567 iterations, 0.28 seconds (0.24 work units)

    Nodes    |    Current Node    |     Objective Bounds      |     Work
 Expl Unexpl |  Obj  Depth IntInf | Incumbent    BestBd   Gap | It/Node Time

     0     0 12347.0181    0   21 58432.9708 12347.0181  78.9%     -    0s
H    0     0                    12949.442696 12347.0181  4.65%     -    0s

Explored 1 nodes (10551 simplex iterations) in 0.47 seconds (0.38 work units)
Thread count was 40 (of 80 available processors)

Solution count 2: 12949.4 58433 

Optimal solution found (tolerance 5.00e-02)
Best objective 1.294944269561e+04, best bound 1.234701809539e+04, gap 4.6521%
coll_cache:optimal_local_rate=0.221148,0.195444,0.199231,0.211251,
coll_cache:optimal_remote_rate=0.603011,0.628715,0.624929,0.612909,
coll_cache:optimal_cpu_rate=0.17584,0.17584,0.17584,0.17584,
z=12949.4
test_result:init:feat_nbytes=56862697472
test_result:init:cache_nbytes=4605878272
test_result:init:feat_nbytes=56862697472
test_result:init:cache_nbytes=4605878272
test_result:init:feat_nbytes=56862697472
test_result:init:cache_nbytes=4605878272
test_result:init:feat_nbytes=56862697472
test_result:init:cache_nbytes=4605878272
    [Step(average) Profiler Level 1 E3 S999]
        L1  sample           0.003853 | send           0.000000
        L1  recv             0.000000 | copy           0.011230 | convert time 0.000000 | train  0.007634
        L1  feature nbytes  563.48 MB | label nbytes 0.00 Bytes
        L1  id nbytes      0.00 Bytes | graph nbytes 0.00 Bytes
        L1  miss nbytes    0.00 Bytes | remote nbytes 0.00 Bytes
        L1  num nodes               0 | num samples           0
        L1  seq duration     0.000000 | refresh duration   0.000000
    [Step(average) Profiler Level 2 E3 S999]
        L2  shuffle     0.000000 | core sample  0.000000 | id remap        0.000000
        L2  graph copy  0.000000 | id copy      0.000000 | cache feat copy 0.011230
        L2  last layer sample time 0.000000 | size 0.000000
    [Step(average) Profiler Level 3 E3 S999]
        L3  khop sample coo  0.000000 | khop sort coo      0.000000 | khop count edge     0.000000 | khop compact edge 0.000000
        L3  walk sample coo  0.000000 | walk topk total    0.000000 | walk topk step1     0.000000 | walk topk step2   0.000000
        L3  walk topk step3  0.000000 | walk topk step4    0.000000 | walk topk step5     0.000000
        L3  walk topk step6  0.000000 | walk topk step7    0.000000
        L3  remap unique     0.000000 | remap populate     0.000000 | remap mapnode       0.000000 | remap mapedge     0.000000
        L3  cache get_index  0.000849 | cache copy_index   0.000000 | cache extract_miss  0.000000
        L3  cache copy_miss  0.000000 | cache combine_miss 0.000000 | cache combine cache 0.010347 | cache combine remote 0.000000
        L3  label extract  0.000000
    [Profiler Level Percentiles E3 S999]
        p50.00_tail_logl2featcopy=0.011185
        p90.00_tail_logl2featcopy=0.011601
        p95.00_tail_logl2featcopy=0.011659
        p99.00_tail_logl2featcopy=0.011762
        p99.90_tail_logl2featcopy=0.012584
[CUDA] cuda: usage: 12.90 GB
Rank=2, Graph loaded.
!!!!dist_homo_graph enumerate latency per epoch: 0.015117, per step: 0.000060
presamping
presamping takes 15.569064617156982
Rank=1, Graph loaded.
!!!!dist_homo_graph enumerate latency per epoch: 0.011234, per step: 0.000045
presamping
presamping takes 16.89040994644165
Rank=3, Graph loaded.
!!!!dist_homo_graph enumerate latency per epoch: 0.010617, per step: 0.000042
presamping
presamping takes 17.2190945148468
config:eval_tsp="2023-04-14 17:51:50"
config:num_worker=4
config:num_intra_size=4
config:root_dir=/nvme/songxiaoniu/graph-learning/wholegraph
config:graph_name=ogbn-papers100M
config:epochs=4
config:batchsize=2000
config:skip_epoch=2
config:local_step=250
config:presc_epoch=2
config:neighbors=10,25
config:hiddensize=256
config:num_layer=2
config:model=sage
config:framework=dgl
config:dataloaderworkers=0
config:dropout=0.5
config:lr=0.003
config:use_nccl=False
config:use_amp=True
config:use_collcache=True
config:cache_percentage=0.08
config:cache_policy=coll_cache_asymm_link
config:omp_thread_num=40
config:unsupervised=True
config:classnum=172
config:global_barrier=<multiprocessing.synchronize.Barrier object at 0x7f1999833460>
config:worker_id=0
creating_intra_node_communicator root=0, local_size=4, world_size=4
Rank=0, Graph loaded.
!!!!dist_homo_graph enumerate latency per epoch: 0.009285, per step: 0.000037
epoch=4 total_steps=1000
presamping
presamping takes 13.707411766052246
start training...
[Epoch 0], time=6.707219123840332, loss=0.6931472420692444
[Epoch 1], time=5.650869607925415, loss=0.6931472420692444
[Epoch 2], time=5.719443321228027, loss=0.6931472420692444
[Epoch 3], time=5.710191965103149, loss=0.6931472420692444
|===========================================================================|
|                  PyTorch CUDA memory summary, device ID 0                 |
|---------------------------------------------------------------------------|
|            CUDA OOMs: 0            |        cudaMalloc retries: 0         |
|===========================================================================|
|        Metric         | Cur Usage  | Peak Usage | Tot Alloc  | Tot Freed  |
|---------------------------------------------------------------------------|
| Allocated memory      |   78223 KB |  428360 KB |    1277 GB |    1277 GB |
|       from large pool |   71167 KB |  421890 KB |    1261 GB |    1261 GB |
|       from small pool |    7055 KB |    8950 KB |      16 GB |      16 GB |
|---------------------------------------------------------------------------|
| Active memory         |   78223 KB |  428360 KB |    1277 GB |    1277 GB |
|       from large pool |   71167 KB |  421890 KB |    1261 GB |    1261 GB |
|       from small pool |    7055 KB |    8950 KB |      16 GB |      16 GB |
|---------------------------------------------------------------------------|
| GPU reserved memory   |    1296 MB |    1296 MB |    1296 MB |       0 B  |
|       from large pool |    1284 MB |    1284 MB |    1284 MB |       0 B  |
|       from small pool |      12 MB |      12 MB |      12 MB |       0 B  |
|---------------------------------------------------------------------------|
| Non-releasable memory |   46705 KB |  489296 KB |    1303 GB |    1303 GB |
|       from large pool |   43520 KB |  485840 KB |    1287 GB |    1287 GB |
|       from small pool |    3184 KB |    6392 KB |      16 GB |      16 GB |
|---------------------------------------------------------------------------|
| Allocations           |      58    |      74    |  204841    |  204783    |
|       from large pool |      11    |      21    |   62548    |   62537    |
|       from small pool |      47    |      58    |  142293    |  142246    |
|---------------------------------------------------------------------------|
| Active allocs         |      58    |      74    |  204841    |  204783    |
|       from large pool |      11    |      21    |   62548    |   62537    |
|       from small pool |      47    |      58    |  142293    |  142246    |
|---------------------------------------------------------------------------|
| GPU reserved segments |      19    |      19    |      19    |       0    |
|       from large pool |      13    |      13    |      13    |       0    |
|       from small pool |       6    |       6    |       6    |       0    |
|---------------------------------------------------------------------------|
| Non-releasable allocs |      26    |      35    |   72853    |   72827    |
|       from large pool |       8    |      13    |   36709    |   36701    |
|       from small pool |      18    |      24    |   36144    |   36126    |
|---------------------------------------------------------------------------|
| Oversize allocations  |       0    |       0    |       0    |       0    |
|---------------------------------------------------------------------------|
| Oversize GPU segments |       0    |       0    |       0    |       0    |
|===========================================================================|

[TRAIN_TIME] train time is 23.789312 seconds
[EPOCH_TIME] 5.947328 seconds, maybe large due to not enough epoch skipped.
[EPOCH_TIME] 5.714965 seconds

